Rodando pra 1h
Optimize a model with 160139 rows, 239600 columns and 1595343 nonzeros
Coefficient statistics:
  Matrix range    [1e+00, 1e+06]
  Objective range [2e-01, 2e-01]
  Bounds range    [1e+00, 1e+06]
  RHS range       [1e+00, 4e+02]
Presolve time: 2.99s
Presolved: 160139 rows, 239600 columns, 1595343 nonzeros
Variable types: 159700 continuous, 79900 integer (79900 binary)

Root simplex log...

Iteration    Objective       Primal Inf.    Dual Inf.      Time
       0    0.0000000e+00   1.214779e+03   0.000000e+00     10s
     877    0.0000000e+00   0.000000e+00   0.000000e+00     11s

Root relaxation: objective 0.000000e+00, 877 iterations, 0.57 seconds
Total elapsed time = 225.94s

    Nodes    |    Current Node    |     Objective Bounds      |     Work
 Expl Unexpl |  Obj  Depth IntInf | Incumbent    BestBd   Gap | It/Node Time

     0     0    0.00000    0   28          -    0.00000      -     -  230s
     0     0    0.00000    0   29          -    0.00000      -     -  623s
     0     0    0.00000    0   27          -    0.00000      -     -  635s
     0     0    0.00000    0   28          -    0.00000      -     -  646s
     0     0    0.00000    0   29          -    0.00000      -     -  646s
     0     0    0.00000    0  335          -    0.00000      -     - 1209s
     0     0    0.00000    0  328          -    0.00000      -     - 1572s
     0     0    0.00000    0  298          -    0.00000      -     - 1603s
     0     0    0.00000    0  305          -    0.00000      -     - 1935s
     0     0    0.00000    0  305          -    0.00000      -     - 2192s

Cutting planes:
  MIR: 23
  Flow cover: 98

Explored 0 nodes (858522 simplex iterations) in 3600.01 seconds
Thread count was 1 (of 4 available processors)

Time limit reached
Best objective -, best bound 0.000000000000e+00, gap -
Tempo: 3569.5 segundos

Error code = 10004
Var::get
